(declare-fun a_ack!75 () (_ BitVec 64))
(declare-fun b_ack!74 () (_ BitVec 64))
(assert (fp.eq ((_ to_fp 11 53) a_ack!75) ((_ to_fp 11 53) #x0000000000000000)))
(assert (not (fp.eq ((_ to_fp 11 53) b_ack!74) ((_ to_fp 11 53) #x0000000000000000))))
(assert (fp.lt (fp.abs ((_ to_fp 11 53) a_ack!75)) (fp.abs ((_ to_fp 11 53) b_ack!74))))
(assert (not (fp.gt (fp.abs ((_ to_fp 11 53) a_ack!75))
            (fp.abs ((_ to_fp 11 53) b_ack!74)))))
(assert (fp.lt (fp.abs ((_ to_fp 11 53) b_ack!74)) ((_ to_fp 11 53) #x7fefffffffffffff)))

(check-sat)
(exit)
